out/norm/euclidex/z3/euclidex_norm_inv2_len2_3.out
unsat
((set-logic NIA)
(declare-fun a!4 () Int)
(declare-fun s!0 () Int)
(declare-fun r!1 () Int)
(declare-fun b!2 () Int)
(declare-fun q!3 () Int)
(declare-fun p!5 () Int)
(proof
(let ((?x643 (* b!2 r!1)))
 (let ((?x140 (* s00 a00)))
 (let ((?x832 (+ ?x140 (* (- 1) (* r00 b00)) ?x643 (* (- 1) (* s!0 a!4)))))
 (let (($x1738 (<= ?x832 0)))
 (let (($x683 (= ?x832 0)))
 (let ((?x966 (* (- 1) q!3)))
 (let ((?x1776 (+ ?x966 p!5)))
 (let ((?x1691 (* (- 1) b!2)))
 (let ((?x1770 (+ ?x1691 a!4)))
 (let ((?x1672 (* (- 1) s!0)))
 (let ((?x1769 (+ ?x1672 r!1)))
 (let ((?x1791 (* (- 1) (* ?x1769 ?x1769 ?x1770 ?x1770 ?x1770 ?x1776 ?x1776 ?x1776 s!0 s!0 b!2 q!3))))
 (let ((?x1891 (* a00 s00 ?x1769 ?x1770 ?x1770 ?x1770 ?x1776 ?x1776 ?x1776 s!0 s!0 q!3)))
 (let ((?x1780 (* b00 r00 ?x1769 ?x1770 ?x1770 ?x1770 ?x1776 ?x1776 ?x1776 s!0 s!0 q!3)))
 (let ((?x1639 (* s00 a00 s!0 s!0 b!2 b!2 a!4)))
 (let ((?x1118 (* s!0 s!0 b!2 b!2 b!2 a!4 r!1)))
 (let ((?x1126 (+ ?x1118 (* (- 1) (* s!0 s!0 b!2 b!2 b!2 b!2 r!1)) (* (- 1) (* s00 a00 s!0 s!0 b!2 b!2 b!2)) ?x1639 (* s!0 s!0 s!0 b!2 b!2 b!2 a!4) (* (- 1) (* s!0 s!0 s!0 b!2 b!2 a!4 a!4)) (* (- 1) (* r00 b00 s!0 s!0 b!2 b!2 a!4)) ?x1780 (* r00 b00 s!0 s!0 b!2 b!2 b!2) (* (- 1) ?x1891) (* ?x1769 ?x1770 ?x1770 ?x1770 ?x1770 ?x1776 ?x1776 ?x1776 s!0 s!0 s!0 q!3) ?x1791)))
 (let (($x1792 (= ?x1126 0)))
 (let ((?x1955 (* r00 b00 q!3 p!5 p!5 p!5 s!0 s!0 a!4 a!4 a!4 r!1)))
 (let ((?x1950 (* r00 b00 p!5 p!5 p!5 p!5 s!0 s!0 a!4 a!4 a!4 r!1)))
 (let ((?x1949 (* r00 b00 q!3 p!5 p!5 p!5 s!0 a!4 a!4 a!4 r!1 r!1)))
 (let ((?x1938 (* r00 b00 q!3 p!5 p!5 p!5 a!4 a!4 a!4 r!1 r!1 r!1)))
 (let ((?x1936 (* r00 b00 p!5 p!5 p!5 p!5 a!4 a!4 a!4 r!1 r!1 r!1)))
 (let ((?x1926 (* q!3 p!5 p!5 p!5 s!0 s!0 b!2 a!4 a!4 a!4 r!1 r!1)))
 (let ((?x1910 (* q!3 p!5 p!5 p!5 s!0 b!2 a!4 a!4 a!4 r!1 r!1 r!1)))
 (let ((?x1909 (* p!5 p!5 p!5 p!5 s!0 s!0 b!2 a!4 a!4 a!4 r!1 r!1)))
 (let ((?x1907 (* p!5 p!5 p!5 p!5 s!0 b!2 a!4 a!4 a!4 r!1 r!1 r!1)))
 (let ((?x1906 (* q!3 p!5 p!5 p!5 s!0 s!0 s!0 a!4 a!4 a!4 a!4 r!1)))
 (let ((?x1903 (* p!5 p!5 p!5 p!5 s!0 s!0 s!0 a!4 a!4 a!4 a!4 r!1)))
 (let ((?x1901 (* q!3 p!5 p!5 p!5 b!2 a!4 a!4 a!4 r!1 r!1 r!1 r!1)))
 (let ((?x1892 (* q!3 p!5 p!5 p!5 s!0 a!4 a!4 a!4 a!4 r!1 r!1 r!1)))
 (let ((?x1873 (* s00 a00 q!3 p!5 p!5 p!5 s!0 s!0 a!4 a!4 a!4 r!1)))
 (let ((?x1871 (* p!5 p!5 p!5 p!5 b!2 a!4 a!4 a!4 r!1 r!1 r!1 r!1)))
 (let ((?x1862 (* s00 a00 p!5 p!5 p!5 p!5 s!0 s!0 a!4 a!4 a!4 r!1)))
 (let ((?x1859 (* s00 a00 q!3 p!5 p!5 p!5 s!0 a!4 a!4 a!4 r!1 r!1)))
 (let ((?x1858 (* s00 a00 q!3 p!5 p!5 p!5 a!4 a!4 a!4 r!1 r!1 r!1)))
 (let ((?x1851 (* s00 a00 p!5 p!5 p!5 p!5 a!4 a!4 a!4 r!1 r!1 r!1)))
 (let ((?x1785 (* p!5 p!5 p!5 p!5 s!0 s!0 a!4 a!4 a!4 a!4 r!1 r!1)))
 (let ((?x1742 (* r00 b00 s!0 s!0 b!2 b!2 a!4)))
 (let ((?x1740 (* q!3 p!5 p!5 p!5 s!0 s!0 a!4 a!4 a!4 a!4 r!1 r!1)))
 (let ((?x1736 (* s!0 s!0 s!0 b!2 b!2 a!4 a!4)))
 (let ((?x1273 (* r00 b00 p!5 p!5 p!5 p!5 s!0 a!4 a!4 a!4 r!1 r!1)))
 (let ((?x1250 (* p!5 p!5 p!5 p!5 s!0 a!4 a!4 a!4 a!4 r!1 r!1 r!1)))
 (let ((?x1218 (* s00 a00 p!5 p!5 p!5 p!5 s!0 a!4 a!4 a!4 r!1 r!1)))
 (let ((?x294 (+ (* 4 (* r00 b00 s!0 b!2 a!4 a!4 r!1)) (* (- 1) ?x1118) (* (- 2) (* s!0 s!0 s!0 b!2 a!4 a!4 a!4)) (* (- 1) (* s00 a00 a!4 a!4 a!4 r!1 r!1)) (* 2 (* s00 a00 s!0 s!0 b!2 a!4 a!4)) (* 2 ?x1218) ?x1250 (* (- 1) (* b!2 b!2 b!2 a!4 r!1 r!1 r!1)) (* (- 2) (* r00 b00 s!0 b!2 b!2 a!4 r!1)) (* (- 2) ?x1273) (* (- 2) (* r00 b00 b!2 a!4 a!4 r!1 r!1)) (* (- 1) ?x1639) ?x1736 (* 2 ?x1740) ?x1742 (* (- 1) (* b!2 a!4 a!4 a!4 r!1 r!1 r!1)) (* (- 2) ?x1785) (* 2 (* b!2 b!2 a!4 a!4 r!1 r!1 r!1)) (* s!0 a!4 a!4 a!4 a!4 r!1 r!1) (* (- 3) (* s!0 b!2 b!2 a!4 a!4 r!1 r!1)) (* (- 2) (* s!0 s!0 a!4 a!4 a!4 a!4 r!1)) (* r00 b00 b!2 b!2 a!4 r!1 r!1) (* 3 (* s!0 s!0 b!2 a!4 a!4 a!4 r!1)) (* s!0 s!0 s!0 a!4 a!4 a!4 a!4) (* r00 b00 s!0 s!0 a!4 a!4 a!4) (* r00 b00 a!4 a!4 a!4 r!1 r!1) (* 2 (* s00 a00 b!2 a!4 a!4 r!1 r!1)) (* (- 1) (* s00 a00 b!2 b!2 a!4 r!1 r!1)) (* 2 (* s00 a00 s!0 a!4 a!4 a!4 r!1)) (* (- 4) (* s00 a00 s!0 b!2 a!4 a!4 r!1)) (* 2 (* s00 a00 s!0 b!2 b!2 a!4 r!1)) (* (- 1) (* s00 a00 s!0 s!0 a!4 a!4 a!4)) (* (- 1) ?x1851) ?x1858 (* (- 2) ?x1859) (* (- 1) ?x1862) (* (- 1) ?x1871) ?x1873 (* (- 2) (* r00 b00 s!0 a!4 a!4 a!4 r!1)) (* (- 1) ?x1892) ?x1901 ?x1903 (* (- 1) ?x1906) (* 2 ?x1907) (* (- 1) ?x1909) (* (- 2) ?x1910) ?x1926 (* 2 (* s!0 b!2 b!2 b!2 a!4 r!1 r!1)) (* (- 2) (* r00 b00 s!0 s!0 b!2 a!4 a!4)) ?x1936 (* (- 1) ?x1938) (* 2 ?x1949) ?x1950 (* (- 1) ?x1955))))
 (let (($x690 (= ?x294 0)))
 (let (($x142 (not $x690)))
 (let (($x1733 (or $x142 (not $x1792))))
 (let ((?x1730 (+ (* p00 b00 s!0) (* (- 1) (* p00 s00 b!2)) (* s00 a00 q!3) (* (- 1) (* r00 b00 q!3)) (* q00 r00 b!2) (* (- 1) (* q00 a00 s!0)))))
 (let ((?x1636 (+ (* p00 s00 a!4) (* (- 1) (* p00 b00 r!1)) (* (- 1) (* s00 a00 p!5)) (* q00 a00 r!1) (* (- 1) (* q00 r00 a!4)) (* r00 b00 p!5))))
 (let ((?x340 (* p!5 b!2)))
 (let ((?x144 (* q00 a00)))
 (let (($x1468 (= (+ ?x144 (* (- 1) (* p00 b00)) ?x340 (* (- 1) (* q!3 a!4))) 0)))
 (let ((?x1634 (* q!3 r!1)))
 (let ((?x41 (* q00 r00)))
 (let ((?x628 (* (- 1) ?x41)))
 (let ((?x37 (* p00 s00)))
 (let (($x1727 (and (= (+ ?x37 ?x628 (* (- 1) (* p!5 s!0)) ?x1634) 0) $x683 $x1468 (= ?x1636 0) (= ?x1730 0) $x1733)))
 (let ((?x779 (* p!5 p!5 p!5 a!4 a!4 a!4 q!3 r!1 s!0 s!0 r00 b00)))
 (let ((?x775 (* p!5 p!5 p!5 p!5 a!4 a!4 a!4 r!1 s!0 s!0 r00 b00)))
 (let ((?x770 (* p!5 p!5 p!5 a!4 a!4 a!4 q!3 r!1 r!1 s!0 r00 b00)))
 (let ((?x768 (* p!5 p!5 p!5 p!5 a!4 a!4 a!4 r!1 r!1 s!0 r00 b00)))
 (let ((?x767 (* p!5 p!5 p!5 a!4 a!4 a!4 q!3 r!1 r!1 r!1 r00 b00)))
 (let ((?x769 (* p!5 p!5 p!5 p!5 a!4 a!4 a!4 r!1 r!1 r!1 r00 b00)))
 (let ((?x671 (* p!5 p!5 p!5 a!4 a!4 a!4 q!3 b!2 r!1 r!1 s!0 s!0)))
 (let ((?x751 (* p!5 p!5 p!5 p!5 a!4 a!4 a!4 b!2 r!1 r!1 s!0 s!0)))
 (let ((?x749 (* p!5 p!5 p!5 a!4 a!4 a!4 q!3 b!2 r!1 r!1 r!1 s!0)))
 (let ((?x1347 (* p!5 p!5 p!5 p!5 a!4 a!4 a!4 b!2 r!1 r!1 r!1 s!0)))
 (let ((?x743 (* p!5 p!5 p!5 a!4 a!4 a!4 q!3 b!2 r!1 r!1 r!1 r!1)))
 (let ((?x669 (* p!5 p!5 p!5 p!5 a!4 a!4 a!4 b!2 r!1 r!1 r!1 r!1)))
 (let ((?x736 (* p!5 p!5 p!5 a!4 a!4 a!4 q!3 r!1 s!0 s!0 s00 a00)))
 (let ((?x1346 (* p!5 p!5 p!5 p!5 a!4 a!4 a!4 r!1 s!0 s!0 s00 a00)))
 (let ((?x730 (* p!5 p!5 p!5 a!4 a!4 a!4 q!3 r!1 r!1 s!0 s00 a00)))
 (let ((?x727 (* p!5 p!5 p!5 p!5 a!4 a!4 a!4 r!1 r!1 s!0 s00 a00)))
 (let ((?x667 (* p!5 p!5 p!5 a!4 a!4 a!4 q!3 r!1 r!1 r!1 s00 a00)))
 (let ((?x722 (* p!5 p!5 p!5 p!5 a!4 a!4 a!4 r!1 r!1 r!1 s00 a00)))
 (let ((?x1374 (* p!5 p!5 p!5 a!4 a!4 a!4 a!4 q!3 r!1 s!0 s!0 s!0)))
 (let ((?x1372 (* p!5 p!5 p!5 p!5 a!4 a!4 a!4 a!4 r!1 s!0 s!0 s!0)))
 (let ((?x1271 (* p!5 p!5 p!5 p!5 a!4 a!4 a!4 a!4 r!1 r!1 r!1 s!0)))
 (let ((?x1371 (* p!5 p!5 p!5 a!4 a!4 a!4 a!4 q!3 r!1 r!1 r!1 s!0)))
 (let ((?x1270 (* p!5 p!5 p!5 p!5 a!4 a!4 a!4 a!4 r!1 r!1 s!0 s!0)))
 (let ((?x1367 (* p!5 p!5 p!5 a!4 a!4 a!4 a!4 q!3 r!1 r!1 s!0 s!0)))
 (let ((?x234 (* a!4 b!2 b!2 s!0 s!0 s00 a00)))
 (let ((?x629 (* a!4 b!2 b!2 b!2 r!1 s!0 s!0)))
 (let ((?x674 (+ ?x629 (* (- 4) (* a!4 a!4 b!2 r!1 s!0 r00 b00)) ?x234 (* 2 (* a!4 a!4 b!2 r!1 r!1 r00 b00)) (* (- 1) (* a!4 a!4 b!2 b!2 s!0 s!0 s!0)) (* (- 1) (* a!4 b!2 b!2 s!0 s!0 r00 b00)) (* (- 2) ?x1367) (* 2 ?x1270) ?x1371 (* (- 1) ?x1271) (* (- 1) ?x1372) ?x1374 (* a!4 a!4 a!4 b!2 r!1 r!1 r!1) (* (- 2) (* a!4 a!4 b!2 b!2 r!1 r!1 r!1)) (* (- 1) (* a!4 a!4 a!4 a!4 r!1 r!1 s!0)) (* 3 (* a!4 a!4 b!2 b!2 r!1 r!1 s!0)) (* 2 (* a!4 a!4 a!4 a!4 r!1 s!0 s!0)) (* (- 3) (* a!4 a!4 a!4 b!2 r!1 s!0 s!0)) (* (- 1) (* a!4 b!2 b!2 r!1 r!1 r00 b00)) (* (- 1) (* a!4 a!4 a!4 a!4 s!0 s!0 s!0)) (* 2 (* a!4 a!4 a!4 b!2 s!0 s!0 s!0)) (* (- 1) (* a!4 a!4 a!4 s!0 s!0 r00 b00)) (* a!4 a!4 a!4 r!1 r!1 s00 a00) (* (- 1) (* a!4 a!4 a!4 r!1 r!1 r00 b00)) (* (- 2) (* a!4 a!4 b!2 r!1 r!1 s00 a00)) (* a!4 b!2 b!2 r!1 r!1 s00 a00) (* (- 2) (* a!4 a!4 a!4 r!1 s!0 s00 a00)) (* 4 (* a!4 a!4 b!2 r!1 s!0 s00 a00)) (* (- 2) (* a!4 b!2 b!2 r!1 s!0 s00 a00)) (* a!4 a!4 a!4 s!0 s!0 s00 a00) (* (- 2) (* a!4 a!4 b!2 s!0 s!0 s00 a00)) ?x722 (* (- 1) ?x667) (* (- 2) ?x727) (* 2 ?x730) ?x1346 (* (- 1) ?x736) (* 2 (* a!4 a!4 a!4 r!1 s!0 r00 b00)) ?x669 (* (- 1) ?x743) (* (- 2) ?x1347) (* 2 ?x749) ?x751 (* (- 1) ?x671) (* a!4 b!2 b!2 b!2 r!1 r!1 r!1) (* (- 2) (* a!4 b!2 b!2 b!2 r!1 r!1 s!0)) (* 2 (* a!4 a!4 b!2 s!0 s!0 r00 b00)) (* 2 (* a!4 b!2 b!2 r!1 s!0 r00 b00)) (* (- 1) ?x769) ?x767 (* 2 ?x768) (* (- 2) ?x770) (* (- 1) ?x775) ?x779)))
 (let ((?x989 (+ p!5 ?x966)))
 (let ((?x1059 (+ a!4 ?x1691)))
 (let ((?x1644 (+ r!1 ?x1672)))
 (let ((?x322 (* a00 s00 ?x1644 ?x1059 ?x1059 ?x1059 ?x989 ?x989 ?x989 s!0 s!0 q!3)))
 (let ((?x1879 (* (- 1) (* ?x1644 ?x1059 ?x1059 ?x1059 ?x1059 ?x989 ?x989 ?x989 s!0 s!0 s!0 q!3))))
 (let ((?x996 (* b00 r00 ?x1644 ?x1059 ?x1059 ?x1059 ?x989 ?x989 ?x989 s!0 s!0 q!3)))
 (let ((?x1643 (* a!4 b!2 b!2 s!0 s!0 r00 b00)))
 (let ((?x1677 (* a!4 a!4 b!2 b!2 s!0 s!0 s!0)))
 (let ((?x1276 (+ (* b!2 b!2 b!2 b!2 r!1 s!0 s!0) (* (- 1) ?x629) (* b!2 b!2 b!2 s!0 s!0 s00 a00) (* (- 1) ?x234) (* (- 1) (* a!4 b!2 b!2 b!2 s!0 s!0 s!0)) ?x1677 ?x1643 (* (- 1) ?x996) (* (- 1) (* b!2 b!2 b!2 s!0 s!0 r00 b00)) ?x1879 ?x322 (* ?x1644 ?x1644 ?x1059 ?x1059 ?x1059 ?x989 ?x989 ?x989 s!0 s!0 b!2 q!3))))
 (let ((?x1919 (+ (* b!2 q00 r00) (* (- 1) (* b!2 p00 s00)) (* s!0 p00 b00) (* (- 1) (* q!3 r00 b00)) (* q!3 s00 a00) (* (- 1) (* s!0 q00 a00)))))
 (let ((?x315 (+ (* a!4 p00 s00) (* (- 1) (* a!4 q00 r00)) (* p!5 r00 b00) (* (- 1) (* r!1 p00 b00)) (* (- 1) (* p!5 s00 a00)) (* r!1 q00 a00))))
 (let (($x445 (= (+ (* a!4 q!3) (* (- 1) ?x144) (* p00 b00) (* (- 1) ?x340)) 0)))
 (let (($x1572 (= (+ (* a!4 s!0) (* (- 1) ?x643) (* (- 1) ?x140) (* r00 b00)) 0)))
 (let (($x785 (and (= (+ (* p!5 s!0) (* (- 1) ?x37) ?x41 (* (- 1) ?x1634)) 0) $x1572 $x445 (= ?x315 0) (= ?x1919 0) (or (not (= ?x1276 0)) (not (= ?x674 0))))))
 (let (($x559 (exists ((p Int) (a Int) (q Int) (b Int) (r Int) (s Int) )(! (let ((?x1713 (* p p p a a a q r s s r00 b00)))
 (let ((?x1708 (* p p p p a a a r s s r00 b00)))
 (let ((?x1683 (* p p p a a a q r r s r00 b00)))
 (let ((?x1674 (* p p p p a a a r r s r00 b00)))
 (let ((?x1666 (* p p p a a a q r r r r00 b00)))
 (let ((?x1657 (* p p p p a a a r r r r00 b00)))
 (let ((?x1503 (* a b b b r r r)))
 (let ((?x1369 (* p p p a a a q b r r s s)))
 (let ((?x1359 (* p p p p a a a b r r s s)))
 (let ((?x1322 (* p p p a a a q b r r r s)))
 (let ((?x1309 (* p p p p a a a b r r r s)))
 (let ((?x1297 (* p p p a a a q b r r r r)))
 (let ((?x1284 (* p p p p a a a b r r r r)))
 (let ((?x1201 (* p p p a a a q r s s s00 a00)))
 (let ((?x1196 (* p p p p a a a r s s s00 a00)))
 (let ((?x1171 (* p p p a a a q r r s s00 a00)))
 (let ((?x1162 (* p p p p a a a r r s s00 a00)))
 (let ((?x1154 (* p p p a a a q r r r s00 a00)))
 (let ((?x1145 (* p p p p a a a r r r s00 a00)))
 (let ((?x1078 (* a a a s s s00 a00)))
 (let ((?x1005 (* a b b r r s00 a00)))
 (let ((?x979 (* a a a r r s00 a00)))
 (let ((?x705 (* a a a b r r r)))
 (let ((?x631 (* p p p a a a a q r s s s)))
 (let ((?x626 (* p p p p a a a a r s s s)))
 (let ((?x566 (* p p p p a a a a r r r s)))
 (let ((?x523 (* p p p a a a a q r r r s)))
 (let ((?x500 (* p p p p a a a a r r s s)))
 (let ((?x491 (* p p p a a a a q r r s s)))
 (let ((?x350 (* a b b s s s00 a00)))
 (let ((?x316 (* a b b b r s s)))
 (let ((?x2146 (+ ?x316 (* (- 4) (* a a b r s r00 b00)) ?x350 (* 2 (* a a b r r r00 b00)) (* (- 1) (* a a b b s s s)) (* (- 1) (* a b b s s r00 b00)) (* (- 2) ?x491) (* 2 ?x500) ?x523 (* (- 1) ?x566) (* (- 1) ?x626) ?x631 ?x705 (* (- 2) (* a a b b r r r)) (* (- 1) (* a a a a r r s)) (* 3 (* a a b b r r s)) (* 2 (* a a a a r s s)) (* (- 3) (* a a a b r s s)) (* (- 1) (* a b b r r r00 b00)) (* (- 1) (* a a a a s s s)) (* 2 (* a a a b s s s)) (* (- 1) (* a a a s s r00 b00)) ?x979 (* (- 1) (* a a a r r r00 b00)) (* (- 2) (* a a b r r s00 a00)) ?x1005 (* (- 2) (* a a a r s s00 a00)) (* 4 (* a a b r s s00 a00)) (* (- 2) (* a b b r s s00 a00)) ?x1078 (* (- 2) (* a a b s s s00 a00)) ?x1145 (* (- 1) ?x1154) (* (- 2) ?x1162) (* 2 ?x1171) ?x1196 (* (- 1) ?x1201) (* 2 (* a a a r s r00 b00)) ?x1284 (* (- 1) ?x1297) (* (- 2) ?x1309) (* 2 ?x1322) ?x1359 (* (- 1) ?x1369) ?x1503 (* (- 2) (* a b b b r r s)) (* 2 (* a a b s s r00 b00)) (* 2 (* a b b r s r00 b00)) (* (- 1) ?x1657) ?x1666 (* 2 ?x1674) (* (- 2) ?x1683) (* (- 1) ?x1708) ?x1713)))
 (let ((?x289 (+ p (* (- 1) q))))
 (let ((?x266 (* (- 1) b)))
 (let ((?x268 (+ a ?x266)))
 (let ((?x296 (+ r (* (- 1) s))))
 (let ((?x637 (* ?x296 ?x296 ?x268 ?x268 ?x268 ?x289 ?x289 ?x289 s s b q)))
 (let ((?x617 (* a00 s00 ?x296 ?x268 ?x268 ?x268 ?x289 ?x289 ?x289 s s q)))
 (let ((?x492 (* ?x296 ?x268 ?x268 ?x268 ?x268 ?x289 ?x289 ?x289 s s s q)))
 (let ((?x1180 (* (- 1) ?x492)))
 (let ((?x439 (* b00 r00 ?x296 ?x268 ?x268 ?x268 ?x289 ?x289 ?x289 s s q)))
 (let ((?x490 (* (- 1) ?x439)))
 (let ((?x436 (* a b b s s r00 b00)))
 (let ((?x422 (* a a b b s s s)))
 (let ((?x412 (* (- 1) (* a b b b s s s))))
 (let ((?x595 (* (- 1) ?x350)))
 (let ((?x347 (* b b b s s s00 a00)))
 (let ((?x596 (* (- 1) ?x316)))
 (let ((?x304 (* b b b b r s s)))
 (let ((?x537 (+ ?x304 ?x596 ?x347 ?x595 ?x412 ?x422 ?x436 ?x490 (* (- 1) (* b b b s s r00 b00)) ?x1180 ?x617 ?x637)))
 (let ((?x72 (* b q00 r00)))
 (let ((?x320 (+ ?x72 (* (- 1) (* b p00 s00)) (* s p00 b00) (* (- 1) (* q r00 b00)) (* q s00 a00) (* (- 1) (* s q00 a00)))))
 (let (($x325 (= ?x320 0)))
 (let ((?x63 (* a p00 s00)))
 (let ((?x256 (+ ?x63 (* (- 1) (* a q00 r00)) (* p r00 b00) (* (- 1) (* r p00 b00)) (* (- 1) (* p s00 a00)) (* r q00 a00))))
 (let (($x257 (= ?x256 0)))
 (let ((?x145 (* p00 b00)))
 (let ((?x144 (* q00 a00)))
 (let ((?x188 (* (- 1) ?x144)))
 (let (($x191 (= (+ (* a q) ?x188 ?x145 (* (- 1) (* p b))) 0)))
 (let ((?x158 (* r00 b00)))
 (let ((?x140 (* s00 a00)))
 (let ((?x147 (* (- 1) ?x140)))
 (let ((?x49 (* a s)))
 (let (($x173 (= (+ ?x49 (* (- 1) (* b r)) ?x147 ?x158) 0)))
 (let ((?x41 (* q00 r00)))
 (let ((?x37 (* p00 s00)))
 (let ((?x149 (* (- 1) ?x37)))
 (let ((?x33 (* p s)))
 (let (($x168 (= (+ ?x33 ?x149 ?x41 (* (- 1) (* q r))) 0)))
 (and $x168 $x173 $x191 $x257 $x325 (or (not (= ?x537 0)) (not (= ?x2146 0)))))))))))))))))))))))))))))))))))))))))))))))))))))))))))))))))))))))))) :qid k!39))
 ))
 (let (($x449 (exists ((p Int) (a Int) (q Int) (b Int) (r Int) (s Int) )(! (let ((?x469 (+ q (* (- 1) p))))
 (let ((?x302 (* (- 1) r)))
 (let ((?x487 (+ s ?x302)))
 (let ((?x399 (* b00 r00 ?x487 ?x487 ?x469 r a a a p p p)))
 (let ((?x269 (* (- 1) a)))
 (let ((?x349 (+ b ?x269)))
 (let ((?x419 (* ?x487 ?x487 ?x349 ?x349 ?x349 r a)))
 (let ((?x713 (* ?x487 ?x487 ?x349 ?x469 r r a a a p p p)))
 (let ((?x1288 (* a00 s00 ?x487 ?x487 ?x469 r a a a p p p)))
 (let ((?x456 (* ?x487 ?x487 ?x487 ?x349 ?x349 a a)))
 (let ((?x458 (* ?x487 ?x487 ?x487 ?x469 r a a a a p p p)))
 (let ((?x516 (* b00 r00 ?x487 ?x487 ?x349 ?x349 a)))
 (let ((?x305 (+ ?x516 (* (- 1) ?x458) ?x456 (* (- 1) (* a00 s00 ?x487 ?x487 ?x349 ?x349 a)) ?x1288 ?x713 (* (- 1) ?x419) (* (- 1) ?x399))))
 (let ((?x289 (+ p (* (- 1) q))))
 (let ((?x266 (* (- 1) b)))
 (let ((?x268 (+ a ?x266)))
 (let ((?x296 (+ r (* (- 1) s))))
 (let ((?x439 (* b00 r00 ?x296 ?x268 ?x268 ?x268 ?x289 ?x289 ?x289 s s q)))
 (let ((?x490 (* (- 1) ?x439)))
 (let ((?x637 (* ?x296 ?x296 ?x268 ?x268 ?x268 ?x289 ?x289 ?x289 s s b q)))
 (let ((?x617 (* a00 s00 ?x296 ?x268 ?x268 ?x268 ?x289 ?x289 ?x289 s s q)))
 (let ((?x485 (* ?x268 ?x268 s s s b b)))
 (let ((?x492 (* ?x296 ?x268 ?x268 ?x268 ?x268 ?x289 ?x289 ?x289 s s s q)))
 (let ((?x1180 (* (- 1) ?x492)))
 (let ((?x307 (* b00 r00 ?x268 s s b b)))
 (let ((?x474 (+ ?x307 ?x1180 ?x485 (* (- 1) (* a00 s00 ?x268 s s b b)) ?x617 ?x637 (* (- 1) (* ?x296 ?x268 s s b b b)) ?x490)))
 (let ((?x73 (* b00 p00 s)))
 (let ((?x463 (+ (* q00 r00 b) ?x73 (* (- 1) (* b00 r00 q)) (* (- 1) (* p00 s00 b)) (* a00 s00 q) (* (- 1) (* a00 q00 s)))))
 (let (($x455 (= ?x463 0)))
 (let ((?x69 (* a00 q00 r)))
 (let ((?x575 (* p00 s00 a)))
 (let ((?x579 (* b00 r00 p)))
 (let ((?x578 (+ ?x579 ?x575 (* (- 1) (* b00 p00 r)) (* (- 1) (* q00 r00 a)) (* (- 1) (* a00 s00 p)) ?x69)))
 (let ((?x57 (* b00 p00)))
 (let ((?x1091 (* q a)))
 (let (($x336 (= (+ ?x1091 (* (- 1) (* a00 q00)) ?x57 (* (- 1) (* b p))) 0)))
 (let ((?x47 (* a00 s00)))
 (let ((?x980 (* r b)))
 (let (($x518 (= (+ ?x980 ?x47 (* (- 1) (* s a)) (* (- 1) (* b00 r00))) 0)))
 (let ((?x41 (* q00 r00)))
 (let ((?x628 (* (- 1) ?x41)))
 (let ((?x37 (* p00 s00)))
 (let ((?x1083 (* r q)))
 (and (= (+ ?x1083 (* (- 1) (* s p)) ?x37 ?x628) 0) $x518 $x336 (= ?x578 0) $x455 (or (not (= ?x474 0)) (not (= ?x305 0))))))))))))))))))))))))))))))))))))))))))))))) :qid k!39))
 ))
 (let ((?x1025 (lambda ((p Int) (a Int) (q Int) (b Int) (r Int) (s Int) )(let ((?x1713 (* p p p a a a q r s s r00 b00)))
 (let ((?x1708 (* p p p p a a a r s s r00 b00)))
 (let ((?x1683 (* p p p a a a q r r s r00 b00)))
 (let ((?x1674 (* p p p p a a a r r s r00 b00)))
 (let ((?x1666 (* p p p a a a q r r r r00 b00)))
 (let ((?x1657 (* p p p p a a a r r r r00 b00)))
 (let ((?x1503 (* a b b b r r r)))
 (let ((?x1369 (* p p p a a a q b r r s s)))
 (let ((?x1359 (* p p p p a a a b r r s s)))
 (let ((?x1322 (* p p p a a a q b r r r s)))
 (let ((?x1309 (* p p p p a a a b r r r s)))
 (let ((?x1297 (* p p p a a a q b r r r r)))
 (let ((?x1284 (* p p p p a a a b r r r r)))
 (let ((?x1201 (* p p p a a a q r s s s00 a00)))
 (let ((?x1196 (* p p p p a a a r s s s00 a00)))
 (let ((?x1171 (* p p p a a a q r r s s00 a00)))
 (let ((?x1162 (* p p p p a a a r r s s00 a00)))
 (let ((?x1154 (* p p p a a a q r r r s00 a00)))
 (let ((?x1145 (* p p p p a a a r r r s00 a00)))
 (let ((?x1078 (* a a a s s s00 a00)))
 (let ((?x1005 (* a b b r r s00 a00)))
 (let ((?x979 (* a a a r r s00 a00)))
 (let ((?x705 (* a a a b r r r)))
 (let ((?x631 (* p p p a a a a q r s s s)))
 (let ((?x626 (* p p p p a a a a r s s s)))
 (let ((?x566 (* p p p p a a a a r r r s)))
 (let ((?x523 (* p p p a a a a q r r r s)))
 (let ((?x500 (* p p p p a a a a r r s s)))
 (let ((?x491 (* p p p a a a a q r r s s)))
 (let ((?x350 (* a b b s s s00 a00)))
 (let ((?x316 (* a b b b r s s)))
 (let ((?x2146 (+ ?x316 (* (- 4) (* a a b r s r00 b00)) ?x350 (* 2 (* a a b r r r00 b00)) (* (- 1) (* a a b b s s s)) (* (- 1) (* a b b s s r00 b00)) (* (- 2) ?x491) (* 2 ?x500) ?x523 (* (- 1) ?x566) (* (- 1) ?x626) ?x631 ?x705 (* (- 2) (* a a b b r r r)) (* (- 1) (* a a a a r r s)) (* 3 (* a a b b r r s)) (* 2 (* a a a a r s s)) (* (- 3) (* a a a b r s s)) (* (- 1) (* a b b r r r00 b00)) (* (- 1) (* a a a a s s s)) (* 2 (* a a a b s s s)) (* (- 1) (* a a a s s r00 b00)) ?x979 (* (- 1) (* a a a r r r00 b00)) (* (- 2) (* a a b r r s00 a00)) ?x1005 (* (- 2) (* a a a r s s00 a00)) (* 4 (* a a b r s s00 a00)) (* (- 2) (* a b b r s s00 a00)) ?x1078 (* (- 2) (* a a b s s s00 a00)) ?x1145 (* (- 1) ?x1154) (* (- 2) ?x1162) (* 2 ?x1171) ?x1196 (* (- 1) ?x1201) (* 2 (* a a a r s r00 b00)) ?x1284 (* (- 1) ?x1297) (* (- 2) ?x1309) (* 2 ?x1322) ?x1359 (* (- 1) ?x1369) ?x1503 (* (- 2) (* a b b b r r s)) (* 2 (* a a b s s r00 b00)) (* 2 (* a b b r s r00 b00)) (* (- 1) ?x1657) ?x1666 (* 2 ?x1674) (* (- 2) ?x1683) (* (- 1) ?x1708) ?x1713)))
 (let ((?x289 (+ p (* (- 1) q))))
 (let ((?x266 (* (- 1) b)))
 (let ((?x268 (+ a ?x266)))
 (let ((?x296 (+ r (* (- 1) s))))
 (let ((?x637 (* ?x296 ?x296 ?x268 ?x268 ?x268 ?x289 ?x289 ?x289 s s b q)))
 (let ((?x617 (* a00 s00 ?x296 ?x268 ?x268 ?x268 ?x289 ?x289 ?x289 s s q)))
 (let ((?x492 (* ?x296 ?x268 ?x268 ?x268 ?x268 ?x289 ?x289 ?x289 s s s q)))
 (let ((?x1180 (* (- 1) ?x492)))
 (let ((?x439 (* b00 r00 ?x296 ?x268 ?x268 ?x268 ?x289 ?x289 ?x289 s s q)))
 (let ((?x490 (* (- 1) ?x439)))
 (let ((?x436 (* a b b s s r00 b00)))
 (let ((?x422 (* a a b b s s s)))
 (let ((?x412 (* (- 1) (* a b b b s s s))))
 (let ((?x595 (* (- 1) ?x350)))
 (let ((?x347 (* b b b s s s00 a00)))
 (let ((?x596 (* (- 1) ?x316)))
 (let ((?x304 (* b b b b r s s)))
 (let ((?x537 (+ ?x304 ?x596 ?x347 ?x595 ?x412 ?x422 ?x436 ?x490 (* (- 1) (* b b b s s r00 b00)) ?x1180 ?x617 ?x637)))
 (let ((?x72 (* b q00 r00)))
 (let ((?x320 (+ ?x72 (* (- 1) (* b p00 s00)) (* s p00 b00) (* (- 1) (* q r00 b00)) (* q s00 a00) (* (- 1) (* s q00 a00)))))
 (let (($x325 (= ?x320 0)))
 (let ((?x63 (* a p00 s00)))
 (let ((?x256 (+ ?x63 (* (- 1) (* a q00 r00)) (* p r00 b00) (* (- 1) (* r p00 b00)) (* (- 1) (* p s00 a00)) (* r q00 a00))))
 (let (($x257 (= ?x256 0)))
 (let ((?x145 (* p00 b00)))
 (let ((?x144 (* q00 a00)))
 (let ((?x188 (* (- 1) ?x144)))
 (let (($x191 (= (+ (* a q) ?x188 ?x145 (* (- 1) (* p b))) 0)))
 (let ((?x158 (* r00 b00)))
 (let ((?x140 (* s00 a00)))
 (let ((?x147 (* (- 1) ?x140)))
 (let ((?x49 (* a s)))
 (let (($x173 (= (+ ?x49 (* (- 1) (* b r)) ?x147 ?x158) 0)))
 (let ((?x41 (* q00 r00)))
 (let ((?x37 (* p00 s00)))
 (let ((?x149 (* (- 1) ?x37)))
 (let ((?x33 (* p s)))
 (let (($x168 (= (+ ?x33 ?x149 ?x41 (* (- 1) (* q r))) 0)))
 (let (($x1542 (and $x168 $x173 $x191 $x257 $x325 (or (not (= ?x537 0)) (not (= ?x2146 0))))))
 (let ((?x469 (+ q (* (- 1) p))))
 (let ((?x302 (* (- 1) r)))
 (let ((?x487 (+ s ?x302)))
 (let ((?x399 (* b00 r00 ?x487 ?x487 ?x469 r a a a p p p)))
 (let ((?x269 (* (- 1) a)))
 (let ((?x349 (+ b ?x269)))
 (let ((?x419 (* ?x487 ?x487 ?x349 ?x349 ?x349 r a)))
 (let ((?x713 (* ?x487 ?x487 ?x349 ?x469 r r a a a p p p)))
 (let ((?x1288 (* a00 s00 ?x487 ?x487 ?x469 r a a a p p p)))
 (let ((?x456 (* ?x487 ?x487 ?x487 ?x349 ?x349 a a)))
 (let ((?x458 (* ?x487 ?x487 ?x487 ?x469 r a a a a p p p)))
 (let ((?x516 (* b00 r00 ?x487 ?x487 ?x349 ?x349 a)))
 (let ((?x305 (+ ?x516 (* (- 1) ?x458) ?x456 (* (- 1) (* a00 s00 ?x487 ?x487 ?x349 ?x349 a)) ?x1288 ?x713 (* (- 1) ?x419) (* (- 1) ?x399))))
 (let ((?x485 (* ?x268 ?x268 s s s b b)))
 (let ((?x307 (* b00 r00 ?x268 s s b b)))
 (let ((?x474 (+ ?x307 ?x1180 ?x485 (* (- 1) (* a00 s00 ?x268 s s b b)) ?x617 ?x637 (* (- 1) (* ?x296 ?x268 s s b b b)) ?x490)))
 (let ((?x73 (* b00 p00 s)))
 (let ((?x463 (+ (* q00 r00 b) ?x73 (* (- 1) (* b00 r00 q)) (* (- 1) (* p00 s00 b)) (* a00 s00 q) (* (- 1) (* a00 q00 s)))))
 (let (($x455 (= ?x463 0)))
 (let ((?x69 (* a00 q00 r)))
 (let ((?x575 (* p00 s00 a)))
 (let ((?x579 (* b00 r00 p)))
 (let ((?x578 (+ ?x579 ?x575 (* (- 1) (* b00 p00 r)) (* (- 1) (* q00 r00 a)) (* (- 1) (* a00 s00 p)) ?x69)))
 (let ((?x57 (* b00 p00)))
 (let ((?x1091 (* q a)))
 (let (($x336 (= (+ ?x1091 (* (- 1) (* a00 q00)) ?x57 (* (- 1) (* b p))) 0)))
 (let ((?x47 (* a00 s00)))
 (let ((?x980 (* r b)))
 (let (($x518 (= (+ ?x980 ?x47 (* (- 1) (* s a)) (* (- 1) (* b00 r00))) 0)))
 (let (($x608 (= (+ (* r q) (* (- 1) (* s p)) ?x37 (* (- 1) ?x41)) 0)))
 (let (($x376 (and $x608 $x518 $x336 (= ?x578 0) $x455 (or (not (= ?x474 0)) (not (= ?x305 0))))))
 (rewrite (= $x376 $x1542)))))))))))))))))))))))))))))))))))))))))))))))))))))))))))))))))))))))))))))))))))))))))))))))))))))))))
 ))
 (let (($x481 (exists ((p Int) (a Int) (q Int) (b Int) (r Int) (s Int) )(! (let ((?x469 (+ q (* (- 1) p))))
 (let ((?x302 (* (- 1) r)))
 (let ((?x487 (+ s ?x302)))
 (let ((?x399 (* b00 r00 ?x487 ?x487 ?x469 r a a a p p p)))
 (let ((?x269 (* (- 1) a)))
 (let ((?x349 (+ b ?x269)))
 (let ((?x419 (* ?x487 ?x487 ?x349 ?x349 ?x349 r a)))
 (let ((?x713 (* ?x487 ?x487 ?x349 ?x469 r r a a a p p p)))
 (let ((?x1288 (* a00 s00 ?x487 ?x487 ?x469 r a a a p p p)))
 (let ((?x630 (* a00 s00 ?x487 ?x487 ?x349 ?x349 a)))
 (let ((?x458 (* ?x487 ?x487 ?x487 ?x469 r a a a a p p p)))
 (let ((?x787 (+ (* (- 1) (* b00 r00 ?x487 ?x487 ?x349 ?x349 a)) ?x458 (* (- 1) (* ?x487 ?x487 ?x487 ?x349 ?x349 a a)) ?x630 (* (- 1) ?x1288) (* (- 1) ?x713) ?x419 ?x399)))
 (let ((?x289 (+ p (* (- 1) q))))
 (let ((?x266 (* (- 1) b)))
 (let ((?x268 (+ a ?x266)))
 (let ((?x296 (+ r (* (- 1) s))))
 (let ((?x439 (* b00 r00 ?x296 ?x268 ?x268 ?x268 ?x289 ?x289 ?x289 s s q)))
 (let ((?x435 (* ?x296 ?x268 s s b b b)))
 (let ((?x637 (* ?x296 ?x296 ?x268 ?x268 ?x268 ?x289 ?x289 ?x289 s s b q)))
 (let ((?x617 (* a00 s00 ?x296 ?x268 ?x268 ?x268 ?x289 ?x289 ?x289 s s q)))
 (let ((?x607 (* a00 s00 ?x268 s s b b)))
 (let ((?x492 (* ?x296 ?x268 ?x268 ?x268 ?x268 ?x289 ?x289 ?x289 s s s q)))
 (let ((?x446 (+ (* (- 1) (* b00 r00 ?x268 s s b b)) ?x492 (* (- 1) (* ?x268 ?x268 s s s b b)) ?x607 (* (- 1) ?x617) (* (- 1) ?x637) ?x435 ?x439)))
 (let ((?x73 (* b00 p00 s)))
 (let ((?x463 (+ (* q00 r00 b) ?x73 (* (- 1) (* b00 r00 q)) (* (- 1) (* p00 s00 b)) (* a00 s00 q) (* (- 1) (* a00 q00 s)))))
 (let (($x455 (= ?x463 0)))
 (let ((?x517 (* a00 s00 p)))
 (let ((?x519 (* q00 r00 a)))
 (let ((?x65 (* b00 p00 r)))
 (let ((?x498 (+ (* (- 1) (* b00 r00 p)) (* (- 1) (* p00 s00 a)) ?x65 ?x519 ?x517 (* (- 1) (* a00 q00 r)))))
 (let ((?x59 (* b p)))
 (let ((?x55 (* a00 q00)))
 (let (($x527 (= (+ (* (- 1) (* q a)) ?x55 (* (- 1) (* b00 p00)) ?x59) 0)))
 (let ((?x51 (* b00 r00)))
 (let ((?x588 (* s a)))
 (let (($x569 (= (+ (* (- 1) (* r b)) (* (- 1) (* a00 s00)) ?x588 ?x51) 0)))
 (let ((?x41 (* q00 r00)))
 (let ((?x37 (* p00 s00)))
 (let ((?x149 (* (- 1) ?x37)))
 (let ((?x720 (* s p)))
 (and (= (+ (* (- 1) (* r q)) ?x720 ?x149 ?x41) 0) $x569 $x527 (= ?x498 0) $x455 (or (not (= ?x446 0)) (not (= ?x787 0)))))))))))))))))))))))))))))))))))))))))))) :qid k!39))
 ))
 (let ((?x1181 (lambda ((p Int) (a Int) (q Int) (b Int) (r Int) (s Int) )(let ((?x469 (+ q (* (- 1) p))))
 (let ((?x302 (* (- 1) r)))
 (let ((?x487 (+ s ?x302)))
 (let ((?x399 (* b00 r00 ?x487 ?x487 ?x469 r a a a p p p)))
 (let ((?x269 (* (- 1) a)))
 (let ((?x349 (+ b ?x269)))
 (let ((?x419 (* ?x487 ?x487 ?x349 ?x349 ?x349 r a)))
 (let ((?x713 (* ?x487 ?x487 ?x349 ?x469 r r a a a p p p)))
 (let ((?x1288 (* a00 s00 ?x487 ?x487 ?x469 r a a a p p p)))
 (let ((?x456 (* ?x487 ?x487 ?x487 ?x349 ?x349 a a)))
 (let ((?x458 (* ?x487 ?x487 ?x487 ?x469 r a a a a p p p)))
 (let ((?x516 (* b00 r00 ?x487 ?x487 ?x349 ?x349 a)))
 (let ((?x305 (+ ?x516 (* (- 1) ?x458) ?x456 (* (- 1) (* a00 s00 ?x487 ?x487 ?x349 ?x349 a)) ?x1288 ?x713 (* (- 1) ?x419) (* (- 1) ?x399))))
 (let ((?x289 (+ p (* (- 1) q))))
 (let ((?x266 (* (- 1) b)))
 (let ((?x268 (+ a ?x266)))
 (let ((?x296 (+ r (* (- 1) s))))
 (let ((?x439 (* b00 r00 ?x296 ?x268 ?x268 ?x268 ?x289 ?x289 ?x289 s s q)))
 (let ((?x490 (* (- 1) ?x439)))
 (let ((?x637 (* ?x296 ?x296 ?x268 ?x268 ?x268 ?x289 ?x289 ?x289 s s b q)))
 (let ((?x617 (* a00 s00 ?x296 ?x268 ?x268 ?x268 ?x289 ?x289 ?x289 s s q)))
 (let ((?x485 (* ?x268 ?x268 s s s b b)))
 (let ((?x492 (* ?x296 ?x268 ?x268 ?x268 ?x268 ?x289 ?x289 ?x289 s s s q)))
 (let ((?x1180 (* (- 1) ?x492)))
 (let ((?x307 (* b00 r00 ?x268 s s b b)))
 (let ((?x474 (+ ?x307 ?x1180 ?x485 (* (- 1) (* a00 s00 ?x268 s s b b)) ?x617 ?x637 (* (- 1) (* ?x296 ?x268 s s b b b)) ?x490)))
 (let ((?x73 (* b00 p00 s)))
 (let ((?x463 (+ (* q00 r00 b) ?x73 (* (- 1) (* b00 r00 q)) (* (- 1) (* p00 s00 b)) (* a00 s00 q) (* (- 1) (* a00 q00 s)))))
 (let (($x455 (= ?x463 0)))
 (let ((?x69 (* a00 q00 r)))
 (let ((?x575 (* p00 s00 a)))
 (let ((?x579 (* b00 r00 p)))
 (let ((?x578 (+ ?x579 ?x575 (* (- 1) (* b00 p00 r)) (* (- 1) (* q00 r00 a)) (* (- 1) (* a00 s00 p)) ?x69)))
 (let ((?x57 (* b00 p00)))
 (let ((?x1091 (* q a)))
 (let (($x336 (= (+ ?x1091 (* (- 1) (* a00 q00)) ?x57 (* (- 1) (* b p))) 0)))
 (let ((?x47 (* a00 s00)))
 (let ((?x980 (* r b)))
 (let (($x518 (= (+ ?x980 ?x47 (* (- 1) (* s a)) (* (- 1) (* b00 r00))) 0)))
 (let ((?x41 (* q00 r00)))
 (let ((?x628 (* (- 1) ?x41)))
 (let ((?x37 (* p00 s00)))
 (let ((?x1083 (* r q)))
 (let (($x376 (and (= (+ ?x1083 (* (- 1) (* s p)) ?x37 ?x628) 0) $x518 $x336 (= ?x578 0) $x455 (or (not (= ?x474 0)) (not (= ?x305 0))))))
 (let ((?x630 (* a00 s00 ?x487 ?x487 ?x349 ?x349 a)))
 (let ((?x787 (+ (* (- 1) ?x516) ?x458 (* (- 1) ?x456) ?x630 (* (- 1) ?x1288) (* (- 1) ?x713) ?x419 ?x399)))
 (let ((?x435 (* ?x296 ?x268 s s b b b)))
 (let ((?x607 (* a00 s00 ?x268 s s b b)))
 (let ((?x446 (+ (* (- 1) ?x307) ?x492 (* (- 1) ?x485) ?x607 (* (- 1) ?x617) (* (- 1) ?x637) ?x435 ?x439)))
 (let ((?x517 (* a00 s00 p)))
 (let ((?x519 (* q00 r00 a)))
 (let ((?x65 (* b00 p00 r)))
 (let (($x494 (= (+ (* (- 1) ?x579) (* (- 1) ?x575) ?x65 ?x519 ?x517 (* (- 1) ?x69)) 0)))
 (let (($x527 (= (+ (* (- 1) ?x1091) (* a00 q00) (* (- 1) ?x57) (* b p)) 0)))
 (let (($x569 (= (+ (* (- 1) ?x980) (* (- 1) ?x47) (* s a) (* b00 r00)) 0)))
 (let (($x610 (and (= (+ (* (- 1) ?x1083) (* s p) (* (- 1) ?x37) ?x41) 0) $x569 $x527 $x494 $x455 (or (not (= ?x446 0)) (not (= ?x787 0))))))
 (rewrite (= $x610 $x376)))))))))))))))))))))))))))))))))))))))))))))))))))))))))))
 ))
 (let (($x124 (exists ((p Int) (a Int) (q Int) (b Int) (r Int) (s Int) )(! (let ((?x104 (- s r)))
 (let ((?x106 (- q p)))
 (let ((?x103 (- b a)))
 (let ((?x108 (+ (* (- 1) a ?x103 ?x103 b00 r00 ?x104 ?x104) (* a a a a p p p ?x106 r ?x104 ?x104 ?x104))))
 (let ((?x112 (+ (- ?x108 (* a a ?x103 ?x103 ?x104 ?x104 ?x104)) (* a a00 ?x103 ?x103 ?x104 ?x104 s00))))
 (let ((?x115 (- ?x112 (* a a a a00 p p p ?x106 r ?x104 ?x104 s00))))
 (let ((?x116 (- ?x115 (* a a a ?x103 p p p ?x106 r r ?x104 ?x104))))
 (let ((?x119 (+ ?x116 (* a ?x103 ?x103 ?x103 r ?x104 ?x104) (* a a a b00 p p p ?x106 r r00 ?x104 ?x104))))
 (let ((?x87 (- r s)))
 (let ((?x86 (- p q)))
 (let ((?x84 (- a b)))
 (let ((?x89 (+ (* (- 1) ?x84 b b b00 r00 s s) (* ?x84 ?x84 ?x84 ?x84 ?x86 ?x86 ?x86 q ?x87 s s s))))
 (let ((?x93 (+ (- ?x89 (* ?x84 ?x84 b b s s s)) (* ?x84 a00 b b s s s00))))
 (let ((?x96 (- ?x93 (* ?x84 ?x84 ?x84 a00 ?x86 ?x86 ?x86 q ?x87 s s s00))))
 (let ((?x97 (- ?x96 (* ?x84 ?x84 ?x84 b ?x86 ?x86 ?x86 q ?x87 ?x87 s s))))
 (let ((?x100 (+ ?x97 (* ?x84 b b b ?x87 s s) (* ?x84 ?x84 ?x84 b00 ?x86 ?x86 ?x86 q ?x87 r00 s s))))
 (let ((?x81 (* a00 q00 s)))
 (let ((?x76 (* b p00 s00)))
 (let ((?x77 (- (+ (* b q00 r00) (* b00 p00 s)) (* b00 q r00))))
 (let ((?x69 (* a00 q00 r)))
 (let ((?x66 (* a q00 r00)))
 (let ((?x65 (* b00 p00 r)))
 (let ((?x68 (+ (- (* (- 1) b00 p r00) (* a p00 s00)) ?x65 ?x66 (* a00 p s00))))
 (let ((?x59 (* b p)))
 (let ((?x60 (+ (- (+ (* (- 1) a q) (* a00 q00)) (* b00 p00)) ?x59)))
 (let ((?x51 (* b00 r00)))
 (let ((?x49 (* a s)))
 (let (($x53 (= (+ (- (* (- 1) b r) (* a00 s00)) ?x49 ?x51) 0)))
 (let ((?x41 (* q00 r00)))
 (let ((?x42 (+ (- (+ (* (- 1) q r) (* p s)) (* p00 s00)) ?x41)))
 (and (= ?x42 0) $x53 (= ?x60 0) (= (- ?x68 ?x69) 0) (= (- (+ (- ?x77 ?x76) (* a00 q s00)) ?x81) 0) (or (not (= ?x100 0)) (not (= ?x119 0)))))))))))))))))))))))))))))))))) :qid k!39))
 ))
 (let ((?x495 (lambda ((p Int) (a Int) (q Int) (b Int) (r Int) (s Int) )(let ((?x469 (+ q (* (- 1) p))))
 (let ((?x302 (* (- 1) r)))
 (let ((?x487 (+ s ?x302)))
 (let ((?x399 (* b00 r00 ?x487 ?x487 ?x469 r a a a p p p)))
 (let ((?x269 (* (- 1) a)))
 (let ((?x349 (+ b ?x269)))
 (let ((?x419 (* ?x487 ?x487 ?x349 ?x349 ?x349 r a)))
 (let ((?x713 (* ?x487 ?x487 ?x349 ?x469 r r a a a p p p)))
 (let ((?x1288 (* a00 s00 ?x487 ?x487 ?x469 r a a a p p p)))
 (let ((?x630 (* a00 s00 ?x487 ?x487 ?x349 ?x349 a)))
 (let ((?x458 (* ?x487 ?x487 ?x487 ?x469 r a a a a p p p)))
 (let ((?x787 (+ (* (- 1) (* b00 r00 ?x487 ?x487 ?x349 ?x349 a)) ?x458 (* (- 1) (* ?x487 ?x487 ?x487 ?x349 ?x349 a a)) ?x630 (* (- 1) ?x1288) (* (- 1) ?x713) ?x419 ?x399)))
 (let ((?x289 (+ p (* (- 1) q))))
 (let ((?x266 (* (- 1) b)))
 (let ((?x268 (+ a ?x266)))
 (let ((?x296 (+ r (* (- 1) s))))
 (let ((?x439 (* b00 r00 ?x296 ?x268 ?x268 ?x268 ?x289 ?x289 ?x289 s s q)))
 (let ((?x435 (* ?x296 ?x268 s s b b b)))
 (let ((?x637 (* ?x296 ?x296 ?x268 ?x268 ?x268 ?x289 ?x289 ?x289 s s b q)))
 (let ((?x617 (* a00 s00 ?x296 ?x268 ?x268 ?x268 ?x289 ?x289 ?x289 s s q)))
 (let ((?x607 (* a00 s00 ?x268 s s b b)))
 (let ((?x492 (* ?x296 ?x268 ?x268 ?x268 ?x268 ?x289 ?x289 ?x289 s s s q)))
 (let ((?x446 (+ (* (- 1) (* b00 r00 ?x268 s s b b)) ?x492 (* (- 1) (* ?x268 ?x268 s s s b b)) ?x607 (* (- 1) ?x617) (* (- 1) ?x637) ?x435 ?x439)))
 (let ((?x73 (* b00 p00 s)))
 (let ((?x463 (+ (* q00 r00 b) ?x73 (* (- 1) (* b00 r00 q)) (* (- 1) (* p00 s00 b)) (* a00 s00 q) (* (- 1) (* a00 q00 s)))))
 (let (($x455 (= ?x463 0)))
 (let ((?x517 (* a00 s00 p)))
 (let ((?x519 (* q00 r00 a)))
 (let ((?x65 (* b00 p00 r)))
 (let ((?x498 (+ (* (- 1) (* b00 r00 p)) (* (- 1) (* p00 s00 a)) ?x65 ?x519 ?x517 (* (- 1) (* a00 q00 r)))))
 (let ((?x59 (* b p)))
 (let ((?x55 (* a00 q00)))
 (let (($x527 (= (+ (* (- 1) (* q a)) ?x55 (* (- 1) (* b00 p00)) ?x59) 0)))
 (let ((?x51 (* b00 r00)))
 (let ((?x588 (* s a)))
 (let (($x569 (= (+ (* (- 1) (* r b)) (* (- 1) (* a00 s00)) ?x588 ?x51) 0)))
 (let ((?x41 (* q00 r00)))
 (let ((?x37 (* p00 s00)))
 (let ((?x149 (* (- 1) ?x37)))
 (let ((?x720 (* s p)))
 (let (($x610 (and (= (+ (* (- 1) (* r q)) ?x720 ?x149 ?x41) 0) $x569 $x527 (= ?x498 0) $x455 (or (not (= ?x446 0)) (not (= ?x787 0))))))
 (let ((?x104 (- s r)))
 (let ((?x106 (- q p)))
 (let ((?x103 (- b a)))
 (let ((?x108 (+ (* (- 1) a ?x103 ?x103 b00 r00 ?x104 ?x104) (* a a a a p p p ?x106 r ?x104 ?x104 ?x104))))
 (let ((?x112 (+ (- ?x108 (* a a ?x103 ?x103 ?x104 ?x104 ?x104)) (* a a00 ?x103 ?x103 ?x104 ?x104 s00))))
 (let ((?x115 (- ?x112 (* a a a a00 p p p ?x106 r ?x104 ?x104 s00))))
 (let ((?x116 (- ?x115 (* a a a ?x103 p p p ?x106 r r ?x104 ?x104))))
 (let ((?x119 (+ ?x116 (* a ?x103 ?x103 ?x103 r ?x104 ?x104) (* a a a b00 p p p ?x106 r r00 ?x104 ?x104))))
 (let ((?x87 (- r s)))
 (let ((?x86 (- p q)))
 (let ((?x84 (- a b)))
 (let ((?x89 (+ (* (- 1) ?x84 b b b00 r00 s s) (* ?x84 ?x84 ?x84 ?x84 ?x86 ?x86 ?x86 q ?x87 s s s))))
 (let ((?x93 (+ (- ?x89 (* ?x84 ?x84 b b s s s)) (* ?x84 a00 b b s s s00))))
 (let ((?x96 (- ?x93 (* ?x84 ?x84 ?x84 a00 ?x86 ?x86 ?x86 q ?x87 s s s00))))
 (let ((?x97 (- ?x96 (* ?x84 ?x84 ?x84 b ?x86 ?x86 ?x86 q ?x87 ?x87 s s))))
 (let ((?x100 (+ ?x97 (* ?x84 b b b ?x87 s s) (* ?x84 ?x84 ?x84 b00 ?x86 ?x86 ?x86 q ?x87 r00 s s))))
 (let ((?x81 (* a00 q00 s)))
 (let ((?x76 (* b p00 s00)))
 (let ((?x80 (+ (- (- (+ (* b q00 r00) ?x73) (* b00 q r00)) ?x76) (* a00 q s00))))
 (let ((?x69 (* a00 q00 r)))
 (let ((?x66 (* a q00 r00)))
 (let ((?x68 (+ (- (* (- 1) b00 p r00) (* a p00 s00)) ?x65 ?x66 (* a00 p s00))))
 (let (($x61 (= (+ (- (+ (* (- 1) a q) ?x55) (* b00 p00)) ?x59) 0)))
 (let (($x53 (= (+ (- (* (- 1) b r) (* a00 s00)) (* a s) ?x51) 0)))
 (let (($x44 (= (+ (- (+ (* (- 1) q r) (* p s)) ?x37) ?x41) 0)))
 (let (($x123 (and $x44 $x53 $x61 (= (- ?x68 ?x69) 0) (= (- ?x80 ?x81) 0) (or (not (= ?x100 0)) (not (= ?x119 0))))))
 (rewrite (= $x123 $x610))))))))))))))))))))))))))))))))))))))))))))))))))))))))))))))))))))))
 ))
 (let ((@x125 (asserted $x124)))
 (let ((@x437 (mp (mp @x125 (quant-intro (proof-bind ?x495) (= $x124 $x481)) $x481) (rewrite (= $x481 $x481)) $x481)))
 (let ((@x797 (mp (mp @x437 (quant-intro (proof-bind ?x1181) (= $x481 $x449)) $x449) (quant-intro (proof-bind ?x1025) (= $x449 $x559)) $x559)))
 (let ((@x1798 (mp (mp~ @x797 (sk (~ $x559 $x785)) $x785) (rewrite (= $x785 $x1727)) $x1727)))
 (let ((@x162 (and-elim @x1798 $x683)))
 (let ((@x1808 (unit-resolution ((_ th-lemma arith triangle-eq) (or (not $x683) $x1738)) @x162 $x1738)))
 (let (($x1741 (>= ?x832 0)))
 (let ((@x1815 (unit-resolution ((_ th-lemma arith triangle-eq) (or (not $x683) $x1741)) @x162 $x1741)))
 (let (($x1354 (not (<= ?x294 0))))
 (let (($x1777 (>= ?x1126 0)))
 (let (($x1774 (<= ?x1126 0)))
 (let ((@x1937 (unit-resolution ((_ th-lemma arith triangle-eq) (or $x1792 (not $x1774) (not $x1777))) (lemma ((_ th-lemma arith) (hypothesis (not $x1774)) @x1815 @x1808 false) $x1774) (lemma ((_ th-lemma arith) (hypothesis (not $x1777)) @x1815 @x1808 false) $x1777) $x1792)))
 (let (($x1124 (>= ?x294 0)))
 (let ((@x1225 (unit-resolution ((_ th-lemma arith triangle-eq) (or $x690 $x1354 (not $x1124))) (lemma ((_ th-lemma arith) (hypothesis (not $x1124)) @x1815 @x1808 false) $x1124) (unit-resolution (and-elim @x1798 $x1733) @x1937 $x142) $x1354)))
 ((_ th-lemma arith) @x1225 @x1815 @x1808 false)))))))))))))))))))))))))))))))))))))))))))))))))))))))))))))))))))))))))))))))))))))))))))))))))))))))))))))))))))))))))))

(:added-eqs                 6
 :arith-assert-diseq        3
 :arith-assert-lower        11
 :arith-assert-upper        10
 :arith-conflicts           4
 :arith-eq-adapter          7
 :arith-grobner             4
 :arith-max-min             1210
 :arith-nonlinear-bounds    2
 :arith-nonlinear-horner    38
 :arith-num-rows            10
 :arith-pivots              7
 :arith-tableau-max-columns 116
 :arith-tableau-max-rows    10
 :conflicts                 4
 :decisions                 7
 :del-clause                15
 :final-checks              6
 :max-memory                3.95
 :memory                    3.31
 :mk-bool-var               27
 :mk-clause                 24
 :num-allocs                1707877
 :num-checks                1
 :propagations              19
 :rlimit-count              16920
 :time                      0.02
 :total-time                0.03)
